# Objective value = 1060
y(1,1,1) 0
y(1,1,2) 0
y(1,1,3) 0
y(1,1,4) 0
y(1,1,5) 0
y(1,1,6) 0
y(1,1,7) 0
y(1,1,8) 0
y(1,1,9) 0
y(1,1,10) 0
y(2,2,1) 0
y(2,2,2) 0
y(2,2,3) 0
y(2,2,4) 0
y(2,2,5) 0
y(2,2,6) 0
y(2,2,7) 0
y(2,2,8) 0
y(2,2,9) 0
y(2,2,10) 0
y(3,3,1) 0
y(3,3,2) 0
y(3,3,3) 0
y(3,3,4) 0
y(3,3,5) 0
y(3,3,6) 0
y(3,3,7) 0
y(3,3,8) 0
y(3,3,9) 0
y(3,3,10) 0
y(4,4,1) 0
y(4,4,2) 0
y(4,4,3) 0
y(4,4,4) 0
y(4,4,5) 0
y(4,4,6) 0
y(4,4,7) 0
y(4,4,8) 0
y(4,4,9) 0
y(4,4,10) 0
y(5,5,1) 0
y(5,5,2) 0
y(5,5,3) 0
y(5,5,4) 0
y(5,5,5) 0
y(5,5,6) 0
y(5,5,7) 0
y(5,5,8) 0
y(5,5,9) 0
y(5,5,10) 0
y(6,6,1) 0
y(6,6,2) 0
y(6,6,3) 0
y(6,6,4) 0
y(6,6,5) 0
y(6,6,6) 0
y(6,6,7) 0
y(6,6,8) 0
y(6,6,9) 0
y(6,6,10) 0
y(7,7,1) 0
y(7,7,2) 0
y(7,7,3) 0
y(7,7,4) 0
y(7,7,5) 0
y(7,7,6) 0
y(7,7,7) 0
y(7,7,8) 0
y(7,7,9) 0
y(7,7,10) 0
y(8,8,1) 0
y(8,8,2) 0
y(8,8,3) 0
y(8,8,4) 0
y(8,8,5) 0
y(8,8,6) 0
y(8,8,7) 0
y(8,8,8) 0
y(8,8,9) 0
y(8,8,10) 0
y(9,9,1) 0
y(9,9,2) 0
y(9,9,3) 0
y(9,9,4) 0
y(9,9,5) 0
y(9,9,6) 0
y(9,9,7) 0
y(9,9,8) 0
y(9,9,9) 0
y(9,9,10) 0
y(10,10,1) 0
y(10,10,2) 0
y(10,10,3) 0
y(10,10,4) 0
y(10,10,5) 0
y(10,10,6) 0
y(10,10,7) 0
y(10,10,8) 0
y(10,10,9) 0
y(10,10,10) 0
y(11,11,1) 0
y(11,11,2) 0
y(11,11,3) 0
y(11,11,4) 0
y(11,11,5) 0
y(11,11,6) 0
y(11,11,7) 0
y(11,11,8) 0
y(11,11,9) 0
y(11,11,10) 0
y(12,12,1) 0
y(12,12,2) 0
y(12,12,3) 0
y(12,12,4) 0
y(12,12,5) 0
y(12,12,6) 0
y(12,12,7) 0
y(12,12,8) 0
y(12,12,9) 0
y(12,12,10) 0
y(13,13,1) 0
y(13,13,2) 0
y(13,13,3) 0
y(13,13,4) 0
y(13,13,5) 0
y(13,13,6) 0
y(13,13,7) 0
y(13,13,8) 0
y(13,13,9) 0
y(13,13,10) 0
y(14,14,1) 0
y(14,14,2) 0
y(14,14,3) 0
y(14,14,4) 0
y(14,14,5) 0
y(14,14,6) 0
y(14,14,7) 0
y(14,14,8) 0
y(14,14,9) 0
y(14,14,10) 0
y(15,15,1) 0
y(15,15,2) 0
y(15,15,3) 0
y(15,15,4) 0
y(15,15,5) 0
y(15,15,6) 0
y(15,15,7) 0
y(15,15,8) 0
y(15,15,9) 0
y(15,15,10) 0
Z 1060
x(1,3) 0
x(1,4) 39
x(1,6) 97
x(1,10) 197
x(1,5) 213
x(1,7) 234
x(1,1) 434
x(1,9) 501
x(1,2) 553
x(1,8) 592
x(2,3) 44
x(2,4) 0
x(2,1) 75
x(2,2) 143
x(2,10) 333
x(2,9) 553
x(2,7) 630
x(2,6) 712
x(2,5) 810
x(2,8) 865
x(3,1) 87
x(3,2) 59
x(3,4) 191
x(3,5) 279
x(3,7) 459
x(3,10) 677
x(3,9) 756
x(3,6) 830
x(3,3) 867
x(3,8) 931
x(4,3) 225
x(4,5) 136
x(4,9) 348
x(4,6) 425
x(4,4) 531
x(4,8) 620
x(4,2) 693
x(4,7) 780
x(4,10) 859
x(4,1) 967
x(5,9) 35
x(5,10) 213
x(5,3) 412
x(5,5) 510
x(5,4) 606
x(5,1) 623
x(5,8) 679
x(5,7) 821
x(5,2) 920
x(5,6) 1035
x(6,8) 35
x(6,9) 0
x(6,7) 130
x(6,10) 574
x(6,3) 642
x(6,2) 677
x(6,6) 684
x(6,5) 722
x(6,1) 872
x(6,4) 984
x(7,5) 0
x(7,6) 192
x(7,4) 251
x(7,10) 290
x(7,1) 388
x(7,9) 451
x(7,7) 513
x(7,8) 565
x(7,3) 797
x(7,2) 969
x(8,5) 55
x(8,6) 27
x(8,3) 92
x(8,7) 143
x(8,2) 208
x(8,8) 253
x(8,1) 487
x(8,4) 881
x(8,10) 942
x(8,9) 1046
x(9,2) 31
x(9,6) 64
x(9,1) 310
x(9,4) 388
x(9,3) 510
x(9,8) 557
x(9,9) 818
x(9,7) 896
x(9,10) 985
x(9,5) 1027
x(10,3) 131
x(10,6) 265
x(10,7) 381
x(10,10) 493
x(10,2) 574
x(10,4) 648
x(10,9) 675
x(10,1) 751
x(10,8) 820
x(10,5) 865
x(11,2) 0
x(11,5) 31
x(11,1) 55
x(11,3) 75
x(11,10) 172
x(11,9) 267
x(11,6) 349
x(11,4) 425
x(11,8) 512
x(11,7) 1042
x(12,6) 36
x(12,10) 75
x(12,1) 172
x(12,5) 234
x(12,7) 305
x(12,4) 675
x(12,3) 774
x(12,2) 797
x(12,9) 884
x(12,8) 974
x(13,6) 0
x(13,10) 27
x(13,9) 164
x(13,8) 191
x(13,5) 371
x(13,7) 707
x(13,4) 774
x(13,1) 822
x(13,2) 869
x(13,3) 1043
x(14,2) 78
x(14,9) 114
x(14,1) 230
x(14,3) 362
x(14,10) 413
x(14,4) 512
x(14,6) 531
x(14,7) 565
x(14,5) 628
x(14,8) 722
x(15,4) 136
x(15,5) 75
x(15,7) 197
x(15,6) 251
x(15,3) 312
x(15,9) 372
x(15,2) 508
x(15,10) 586
x(15,8) 658
x(15,1) 676
y(1,2,1) 0
y(1,2,2) 0
y(1,2,3) 1
y(1,2,4) 0
y(1,2,5) 1
y(1,2,6) 1
y(1,2,7) 1
y(1,2,8) 1
y(1,2,9) 1
y(1,2,10) 1
y(1,3,1) 0
y(1,3,2) 0
y(1,3,3) 1
y(1,3,4) 1
y(1,3,5) 1
y(1,3,6) 1
y(1,3,7) 1
y(1,3,8) 1
y(1,3,9) 1
y(1,3,10) 1
y(1,4,1) 1
y(1,4,2) 1
y(1,4,3) 1
y(1,4,4) 1
y(1,4,5) 0
y(1,4,6) 1
y(1,4,7) 1
y(1,4,8) 1
y(1,4,9) 0
y(1,4,10) 1
y(1,5,1) 1
y(1,5,2) 1
y(1,5,3) 1
y(1,5,4) 1
y(1,5,5) 1
y(1,5,6) 1
y(1,5,7) 1
y(1,5,8) 1
y(1,5,9) 0
y(1,5,10) 1
y(1,6,1) 1
y(1,6,2) 1
y(1,6,3) 1
y(1,6,4) 1
y(1,6,5) 1
y(1,6,6) 1
y(1,6,7) 0
y(1,6,8) 0
y(1,6,9) 0
y(1,6,10) 1
y(1,7,1) 0
y(1,7,2) 1
y(1,7,3) 1
y(1,7,4) 1
y(1,7,5) 0
y(1,7,6) 1
y(1,7,7) 1
y(1,7,8) 0
y(1,7,9) 0
y(1,7,10) 1
y(1,8,1) 1
y(1,8,2) 0
y(1,8,3) 1
y(1,8,4) 1
y(1,8,5) 0
y(1,8,6) 0
y(1,8,7) 0
y(1,8,8) 0
y(1,8,9) 1
y(1,8,10) 1
y(1,9,1) 0
y(1,9,2) 0
y(1,9,3) 1
y(1,9,4) 1
y(1,9,5) 1
y(1,9,6) 0
y(1,9,7) 1
y(1,9,8) 0
y(1,9,9) 1
y(1,9,10) 1
y(1,10,1) 1
y(1,10,2) 1
y(1,10,3) 1
y(1,10,4) 1
y(1,10,5) 1
y(1,10,6) 1
y(1,10,7) 1
y(1,10,8) 1
y(1,10,9) 1
y(1,10,10) 1
y(1,11,1) 0
y(1,11,2) 0
y(1,11,3) 1
y(1,11,4) 1
y(1,11,5) 0
y(1,11,6) 1
y(1,11,7) 1
y(1,11,8) 0
y(1,11,9) 0
y(1,11,10) 0
y(1,12,1) 0
y(1,12,2) 1
y(1,12,3) 1
y(1,12,4) 1
y(1,12,5) 1
y(1,12,6) 0
y(1,12,7) 1
y(1,12,8) 1
y(1,12,9) 1
y(1,12,10) 0
y(1,13,1) 1
y(1,13,2) 1
y(1,13,3) 1
y(1,13,4) 1
y(1,13,5) 1
y(1,13,6) 0
y(1,13,7) 1
y(1,13,8) 0
y(1,13,9) 0
y(1,13,10) 0
y(1,14,1) 0
y(1,14,2) 0
y(1,14,3) 1
y(1,14,4) 1
y(1,14,5) 1
y(1,14,6) 1
y(1,14,7) 1
y(1,14,8) 1
y(1,14,9) 0
y(1,14,10) 1
y(1,15,1) 1
y(1,15,2) 0
y(1,15,3) 1
y(1,15,4) 1
y(1,15,5) 0
y(1,15,6) 1
y(1,15,7) 0
y(1,15,8) 1
y(1,15,9) 0
y(1,15,10) 1
y(2,1,1) 1
y(2,1,2) 1
y(2,1,3) 0
y(2,1,4) 1
y(2,1,5) 0
y(2,1,6) 0
y(2,1,7) 0
y(2,1,8) 0
y(2,1,9) 0
y(2,1,10) 0
y(2,3,1) 1
y(2,3,2) 0
y(2,3,3) 1
y(2,3,4) 1
y(2,3,5) 0
y(2,3,6) 1
y(2,3,7) 0
y(2,3,8) 1
y(2,3,9) 1
y(2,3,10) 1
y(2,4,1) 1
y(2,4,2) 1
y(2,4,3) 1
y(2,4,4) 1
y(2,4,5) 0
y(2,4,6) 0
y(2,4,7) 1
y(2,4,8) 0
y(2,4,9) 0
y(2,4,10) 1
y(2,5,1) 1
y(2,5,2) 1
y(2,5,3) 1
y(2,5,4) 1
y(2,5,5) 0
y(2,5,6) 1
y(2,5,7) 1
y(2,5,8) 0
y(2,5,9) 0
y(2,5,10) 0
y(2,6,1) 1
y(2,6,2) 1
y(2,6,3) 1
y(2,6,4) 1
y(2,6,5) 0
y(2,6,6) 0
y(2,6,7) 0
y(2,6,8) 0
y(2,6,9) 0
y(2,6,10) 1
y(2,7,1) 1
y(2,7,2) 1
y(2,7,3) 1
y(2,7,4) 1
y(2,7,5) 0
y(2,7,6) 0
y(2,7,7) 0
y(2,7,8) 0
y(2,7,9) 0
y(2,7,10) 0
y(2,8,1) 1
y(2,8,2) 1
y(2,8,3) 1
y(2,8,4) 1
y(2,8,5) 0
y(2,8,6) 0
y(2,8,7) 0
y(2,8,8) 0
y(2,8,9) 1
y(2,8,10) 1
y(2,9,1) 1
y(2,9,2) 0
y(2,9,3) 1
y(2,9,4) 1
y(2,9,5) 1
y(2,9,6) 0
y(2,9,7) 1
y(2,9,8) 0
y(2,9,9) 1
y(2,9,10) 1
y(2,10,1) 1
y(2,10,2) 1
y(2,10,3) 1
y(2,10,4) 1
y(2,10,5) 1
y(2,10,6) 0
y(2,10,7) 0
y(2,10,8) 0
y(2,10,9) 1
y(2,10,10) 1
y(2,11,1) 0
y(2,11,2) 0
y(2,11,3) 1
y(2,11,4) 1
y(2,11,5) 0
y(2,11,6) 0
y(2,11,7) 1
y(2,11,8) 0
y(2,11,9) 0
y(2,11,10) 0
y(2,12,1) 1
y(2,12,2) 1
y(2,12,3) 1
y(2,12,4) 1
y(2,12,5) 0
y(2,12,6) 0
y(2,12,7) 0
y(2,12,8) 1
y(2,12,9) 1
y(2,12,10) 0
y(2,13,1) 1
y(2,13,2) 1
y(2,13,3) 1
y(2,13,4) 1
y(2,13,5) 0
y(2,13,6) 0
y(2,13,7) 1
y(2,13,8) 0
y(2,13,9) 0
y(2,13,10) 0
y(2,14,1) 1
y(2,14,2) 0
y(2,14,3) 1
y(2,14,4) 1
y(2,14,5) 0
y(2,14,6) 0
y(2,14,7) 0
y(2,14,8) 0
y(2,14,9) 0
y(2,14,10) 1
y(2,15,1) 1
y(2,15,2) 1
y(2,15,3) 1
y(2,15,4) 1
y(2,15,5) 0
y(2,15,6) 0
y(2,15,7) 0
y(2,15,8) 0
y(2,15,9) 0
y(2,15,10) 1
y(3,1,1) 1
y(3,1,2) 1
y(3,1,3) 0
y(3,1,4) 0
y(3,1,5) 0
y(3,1,6) 0
y(3,1,7) 0
y(3,1,8) 0
y(3,1,9) 0
y(3,1,10) 0
y(3,2,1) 0
y(3,2,2) 1
y(3,2,3) 0
y(3,2,4) 0
y(3,2,5) 1
y(3,2,6) 0
y(3,2,7) 1
y(3,2,8) 0
y(3,2,9) 0
y(3,2,10) 0
y(3,4,1) 1
y(3,4,2) 1
y(3,4,3) 0
y(3,4,4) 1
y(3,4,5) 0
y(3,4,6) 0
y(3,4,7) 1
y(3,4,8) 0
y(3,4,9) 0
y(3,4,10) 1
y(3,5,1) 1
y(3,5,2) 1
y(3,5,3) 0
y(3,5,4) 1
y(3,5,5) 1
y(3,5,6) 1
y(3,5,7) 1
y(3,5,8) 0
y(3,5,9) 0
y(3,5,10) 0
y(3,6,1) 1
y(3,6,2) 1
y(3,6,3) 0
y(3,6,4) 1
y(3,6,5) 1
y(3,6,6) 0
y(3,6,7) 0
y(3,6,8) 0
y(3,6,9) 0
y(3,6,10) 0
y(3,7,1) 1
y(3,7,2) 1
y(3,7,3) 0
y(3,7,4) 1
y(3,7,5) 0
y(3,7,6) 0
y(3,7,7) 1
y(3,7,8) 0
y(3,7,9) 0
y(3,7,10) 0
y(3,8,1) 1
y(3,8,2) 1
y(3,8,3) 0
y(3,8,4) 1
y(3,8,5) 0
y(3,8,6) 0
y(3,8,7) 0
y(3,8,8) 0
y(3,8,9) 1
y(3,8,10) 1
y(3,9,1) 1
y(3,9,2) 0
y(3,9,3) 0
y(3,9,4) 1
y(3,9,5) 1
y(3,9,6) 0
y(3,9,7) 1
y(3,9,8) 0
y(3,9,9) 1
y(3,9,10) 1
y(3,10,1) 1
y(3,10,2) 1
y(3,10,3) 0
y(3,10,4) 1
y(3,10,5) 1
y(3,10,6) 0
y(3,10,7) 0
y(3,10,8) 0
y(3,10,9) 0
y(3,10,10) 0
y(3,11,1) 0
y(3,11,2) 0
y(3,11,3) 0
y(3,11,4) 1
y(3,11,5) 0
y(3,11,6) 0
y(3,11,7) 1
y(3,11,8) 0
y(3,11,9) 0
y(3,11,10) 0
y(3,12,1) 1
y(3,12,2) 1
y(3,12,3) 0
y(3,12,4) 1
y(3,12,5) 0
y(3,12,6) 0
y(3,12,7) 0
y(3,12,8) 1
y(3,12,9) 1
y(3,12,10) 0
y(3,13,1) 1
y(3,13,2) 1
y(3,13,3) 1
y(3,13,4) 1
y(3,13,5) 1
y(3,13,6) 0
y(3,13,7) 1
y(3,13,8) 0
y(3,13,9) 0
y(3,13,10) 0
y(3,14,1) 1
y(3,14,2) 1
y(3,14,3) 0
y(3,14,4) 1
y(3,14,5) 1
y(3,14,6) 0
y(3,14,7) 1
y(3,14,8) 0
y(3,14,9) 0
y(3,14,10) 0
y(3,15,1) 1
y(3,15,2) 1
y(3,15,3) 0
y(3,15,4) 0
y(3,15,5) 0
y(3,15,6) 0
y(3,15,7) 0
y(3,15,8) 0
y(3,15,9) 0
y(3,15,10) 0
y(4,1,1) 0
y(4,1,2) 0
y(4,1,3) 0
y(4,1,4) 0
y(4,1,5) 1
y(4,1,6) 0
y(4,1,7) 0
y(4,1,8) 0
y(4,1,9) 1
y(4,1,10) 0
y(4,2,1) 0
y(4,2,2) 0
y(4,2,3) 0
y(4,2,4) 0
y(4,2,5) 1
y(4,2,6) 1
y(4,2,7) 0
y(4,2,8) 1
y(4,2,9) 1
y(4,2,10) 0
y(4,3,1) 0
y(4,3,2) 0
y(4,3,3) 1
y(4,3,4) 0
y(4,3,5) 1
y(4,3,6) 1
y(4,3,7) 0
y(4,3,8) 1
y(4,3,9) 1
y(4,3,10) 0
y(4,5,1) 0
y(4,5,2) 1
y(4,5,3) 1
y(4,5,4) 1
y(4,5,5) 1
y(4,5,6) 1
y(4,5,7) 1
y(4,5,8) 1
y(4,5,9) 0
y(4,5,10) 0
y(4,6,1) 0
y(4,6,2) 0
y(4,6,3) 1
y(4,6,4) 1
y(4,6,5) 1
y(4,6,6) 1
y(4,6,7) 0
y(4,6,8) 0
y(4,6,9) 0
y(4,6,10) 0
y(4,7,1) 0
y(4,7,2) 1
y(4,7,3) 1
y(4,7,4) 0
y(4,7,5) 0
y(4,7,6) 0
y(4,7,7) 0
y(4,7,8) 0
y(4,7,9) 1
y(4,7,10) 0
y(4,8,1) 0
y(4,8,2) 0
y(4,8,3) 0
y(4,8,4) 1
y(4,8,5) 0
y(4,8,6) 0
y(4,8,7) 0
y(4,8,8) 0
y(4,8,9) 1
y(4,8,10) 1
y(4,9,1) 0
y(4,9,2) 0
y(4,9,3) 1
y(4,9,4) 0
y(4,9,5) 1
y(4,9,6) 0
y(4,9,7) 1
y(4,9,8) 0
y(4,9,9) 1
y(4,9,10) 1
y(4,10,1) 0
y(4,10,2) 0
y(4,10,3) 0
y(4,10,4) 1
y(4,10,5) 1
y(4,10,6) 0
y(4,10,7) 0
y(4,10,8) 1
y(4,10,9) 1
y(4,10,10) 0
y(4,11,1) 0
y(4,11,2) 0
y(4,11,3) 0
y(4,11,4) 0
y(4,11,5) 0
y(4,11,6) 0
y(4,11,7) 1
y(4,11,8) 0
y(4,11,9) 0
y(4,11,10) 0
y(4,12,1) 0
y(4,12,2) 1
y(4,12,3) 1
y(4,12,4) 1
y(4,12,5) 1
y(4,12,6) 0
y(4,12,7) 0
y(4,12,8) 1
y(4,12,9) 1
y(4,12,10) 0
y(4,13,1) 0
y(4,13,2) 1
y(4,13,3) 1
y(4,13,4) 1
y(4,13,5) 1
y(4,13,6) 0
y(4,13,7) 0
y(4,13,8) 0
y(4,13,9) 0
y(4,13,10) 0
y(4,14,1) 0
y(4,14,2) 0
y(4,14,3) 1
y(4,14,4) 0
y(4,14,5) 1
y(4,14,6) 1
y(4,14,7) 0
y(4,14,8) 1
y(4,14,9) 0
y(4,14,10) 0
y(4,15,1) 0
y(4,15,2) 0
y(4,15,3) 1
y(4,15,4) 0
y(4,15,5) 0
y(4,15,6) 0
y(4,15,7) 0
y(4,15,8) 1
y(4,15,9) 1
y(4,15,10) 0
y(5,1,1) 0
y(5,1,2) 0
y(5,1,3) 0
y(5,1,4) 0
y(5,1,5) 0
y(5,1,6) 0
y(5,1,7) 0
y(5,1,8) 0
y(5,1,9) 1
y(5,1,10) 0
y(5,2,1) 0
y(5,2,2) 0
y(5,2,3) 0
y(5,2,4) 0
y(5,2,5) 1
y(5,2,6) 0
y(5,2,7) 0
y(5,2,8) 1
y(5,2,9) 1
y(5,2,10) 1
y(5,3,1) 0
y(5,3,2) 0
y(5,3,3) 1
y(5,3,4) 0
y(5,3,5) 0
y(5,3,6) 0
y(5,3,7) 0
y(5,3,8) 1
y(5,3,9) 1
y(5,3,10) 1
y(5,4,1) 1
y(5,4,2) 0
y(5,4,3) 0
y(5,4,4) 0
y(5,4,5) 0
y(5,4,6) 0
y(5,4,7) 0
y(5,4,8) 0
y(5,4,9) 1
y(5,4,10) 1
y(5,6,1) 1
y(5,6,2) 0
y(5,6,3) 1
y(5,6,4) 1
y(5,6,5) 1
y(5,6,6) 0
y(5,6,7) 0
y(5,6,8) 0
y(5,6,9) 0
y(5,6,10) 1
y(5,7,1) 0
y(5,7,2) 1
y(5,7,3) 1
y(5,7,4) 0
y(5,7,5) 0
y(5,7,6) 0
y(5,7,7) 0
y(5,7,8) 0
y(5,7,9) 1
y(5,7,10) 1
y(5,8,1) 0
y(5,8,2) 0
y(5,8,3) 0
y(5,8,4) 1
y(5,8,5) 0
y(5,8,6) 0
y(5,8,7) 0
y(5,8,8) 0
y(5,8,9) 1
y(5,8,10) 1
y(5,9,1) 0
y(5,9,2) 0
y(5,9,3) 1
y(5,9,4) 0
y(5,9,5) 1
y(5,9,6) 0
y(5,9,7) 1
y(5,9,8) 0
y(5,9,9) 1
y(5,9,10) 1
y(5,10,1) 1
y(5,10,2) 0
y(5,10,3) 0
y(5,10,4) 1
y(5,10,5) 1
y(5,10,6) 0
y(5,10,7) 0
y(5,10,8) 1
y(5,10,9) 1
y(5,10,10) 1
y(5,11,1) 0
y(5,11,2) 0
y(5,11,3) 0
y(5,11,4) 0
y(5,11,5) 0
y(5,11,6) 0
y(5,11,7) 1
y(5,11,8) 0
y(5,11,9) 1
y(5,11,10) 0
y(5,12,1) 0
y(5,12,2) 0
y(5,12,3) 1
y(5,12,4) 1
y(5,12,5) 0
y(5,12,6) 0
y(5,12,7) 0
y(5,12,8) 1
y(5,12,9) 1
y(5,12,10) 0
y(5,13,1) 1
y(5,13,2) 0
y(5,13,3) 1
y(5,13,4) 1
y(5,13,5) 0
y(5,13,6) 0
y(5,13,7) 0
y(5,13,8) 0
y(5,13,9) 1
y(5,13,10) 0
y(5,14,1) 0
y(5,14,2) 0
y(5,14,3) 0
y(5,14,4) 0
y(5,14,5) 1
y(5,14,6) 0
y(5,14,7) 0
y(5,14,8) 1
y(5,14,9) 1
y(5,14,10) 1
y(5,15,1) 1
y(5,15,2) 0
y(5,15,3) 0
y(5,15,4) 0
y(5,15,5) 0
y(5,15,6) 0
y(5,15,7) 0
y(5,15,8) 0
y(5,15,9) 1
y(5,15,10) 1
y(6,1,1) 0
y(6,1,2) 0
y(6,1,3) 0
y(6,1,4) 0
y(6,1,5) 0
y(6,1,6) 0
y(6,1,7) 1
y(6,1,8) 1
y(6,1,9) 1
y(6,1,10) 0
y(6,2,1) 0
y(6,2,2) 0
y(6,2,3) 0
y(6,2,4) 0
y(6,2,5) 1
y(6,2,6) 1
y(6,2,7) 1
y(6,2,8) 1
y(6,2,9) 1
y(6,2,10) 0
y(6,3,1) 0
y(6,3,2) 0
y(6,3,3) 1
y(6,3,4) 0
y(6,3,5) 0
y(6,3,6) 1
y(6,3,7) 1
y(6,3,8) 1
y(6,3,9) 1
y(6,3,10) 1
y(6,4,1) 1
y(6,4,2) 1
y(6,4,3) 0
y(6,4,4) 0
y(6,4,5) 0
y(6,4,6) 0
y(6,4,7) 1
y(6,4,8) 1
y(6,4,9) 1
y(6,4,10) 1
y(6,5,1) 0
y(6,5,2) 1
y(6,5,3) 0
y(6,5,4) 0
y(6,5,5) 0
y(6,5,6) 1
y(6,5,7) 1
y(6,5,8) 1
y(6,5,9) 1
y(6,5,10) 0
y(6,7,1) 0
y(6,7,2) 1
y(6,7,3) 1
y(6,7,4) 0
y(6,7,5) 0
y(6,7,6) 0
y(6,7,7) 1
y(6,7,8) 1
y(6,7,9) 1
y(6,7,10) 0
y(6,8,1) 0
y(6,8,2) 0
y(6,8,3) 0
y(6,8,4) 0
y(6,8,5) 0
y(6,8,6) 0
y(6,8,7) 1
y(6,8,8) 1
y(6,8,9) 1
y(6,8,10) 1
y(6,9,1) 0
y(6,9,2) 0
y(6,9,3) 0
y(6,9,4) 0
y(6,9,5) 1
y(6,9,6) 0
y(6,9,7) 1
y(6,9,8) 1
y(6,9,9) 1
y(6,9,10) 1
y(6,10,1) 0
y(6,10,2) 0
y(6,10,3) 0
y(6,10,4) 0
y(6,10,5) 1
y(6,10,6) 0
y(6,10,7) 1
y(6,10,8) 1
y(6,10,9) 1
y(6,10,10) 0
y(6,11,1) 0
y(6,11,2) 0
y(6,11,3) 0
y(6,11,4) 0
y(6,11,5) 0
y(6,11,6) 0
y(6,11,7) 1
y(6,11,8) 1
y(6,11,9) 1
y(6,11,10) 0
y(6,12,1) 0
y(6,12,2) 1
y(6,12,3) 1
y(6,12,4) 0
y(6,12,5) 0
y(6,12,6) 0
y(6,12,7) 1
y(6,12,8) 1
y(6,12,9) 1
y(6,12,10) 0
y(6,13,1) 0
y(6,13,2) 1
y(6,13,3) 1
y(6,13,4) 0
y(6,13,5) 0
y(6,13,6) 0
y(6,13,7) 1
y(6,13,8) 1
y(6,13,9) 1
y(6,13,10) 0
y(6,14,1) 0
y(6,14,2) 0
y(6,14,3) 0
y(6,14,4) 0
y(6,14,5) 0
y(6,14,6) 0
y(6,14,7) 1
y(6,14,8) 1
y(6,14,9) 1
y(6,14,10) 0
y(6,15,1) 0
y(6,15,2) 0
y(6,15,3) 0
y(6,15,4) 0
y(6,15,5) 0
y(6,15,6) 0
y(6,15,7) 1
y(6,15,8) 1
y(6,15,9) 1
y(6,15,10) 1
y(7,1,1) 1
y(7,1,2) 0
y(7,1,3) 0
y(7,1,4) 0
y(7,1,5) 1
y(7,1,6) 0
y(7,1,7) 0
y(7,1,8) 1
y(7,1,9) 1
y(7,1,10) 0
y(7,2,1) 0
y(7,2,2) 0
y(7,2,3) 0
y(7,2,4) 0
y(7,2,5) 1
y(7,2,6) 1
y(7,2,7) 1
y(7,2,8) 1
y(7,2,9) 1
y(7,2,10) 1
y(7,3,1) 0
y(7,3,2) 0
y(7,3,3) 1
y(7,3,4) 0
y(7,3,5) 1
y(7,3,6) 1
y(7,3,7) 0
y(7,3,8) 1
y(7,3,9) 1
y(7,3,10) 1
y(7,4,1) 1
y(7,4,2) 0
y(7,4,3) 0
y(7,4,4) 1
y(7,4,5) 1
y(7,4,6) 1
y(7,4,7) 1
y(7,4,8) 1
y(7,4,9) 0
y(7,4,10) 1
y(7,5,1) 1
y(7,5,2) 0
y(7,5,3) 0
y(7,5,4) 1
y(7,5,5) 1
y(7,5,6) 1
y(7,5,7) 1
y(7,5,8) 1
y(7,5,9) 0
y(7,5,10) 0
y(7,6,1) 1
y(7,6,2) 0
y(7,6,3) 0
y(7,6,4) 1
y(7,6,5) 1
y(7,6,6) 1
y(7,6,7) 0
y(7,6,8) 0
y(7,6,9) 0
y(7,6,10) 1
y(7,8,1) 1
y(7,8,2) 0
y(7,8,3) 0
y(7,8,4) 1
y(7,8,5) 1
y(7,8,6) 0
y(7,8,7) 0
y(7,8,8) 0
y(7,8,9) 1
y(7,8,10) 1
y(7,9,1) 0
y(7,9,2) 0
y(7,9,3) 0
y(7,9,4) 1
y(7,9,5) 1
y(7,9,6) 0
y(7,9,7) 1
y(7,9,8) 0
y(7,9,9) 1
y(7,9,10) 1
y(7,10,1) 1
y(7,10,2) 0
y(7,10,3) 0
y(7,10,4) 1
y(7,10,5) 1
y(7,10,6) 1
y(7,10,7) 0
y(7,10,8) 1
y(7,10,9) 1
y(7,10,10) 1
y(7,11,1) 0
y(7,11,2) 0
y(7,11,3) 0
y(7,11,4) 1
y(7,11,5) 1
y(7,11,6) 1
y(7,11,7) 1
y(7,11,8) 0
y(7,11,9) 0
y(7,11,10) 0
y(7,12,1) 0
y(7,12,2) 0
y(7,12,3) 0
y(7,12,4) 1
y(7,12,5) 1
y(7,12,6) 0
y(7,12,7) 0
y(7,12,8) 1
y(7,12,9) 1
y(7,12,10) 0
y(7,13,1) 1
y(7,13,2) 0
y(7,13,3) 1
y(7,13,4) 1
y(7,13,5) 1
y(7,13,6) 0
y(7,13,7) 1
y(7,13,8) 0
y(7,13,9) 0
y(7,13,10) 0
y(7,14,1) 0
y(7,14,2) 0
y(7,14,3) 0
y(7,14,4) 1
y(7,14,5) 1
y(7,14,6) 1
y(7,14,7) 1
y(7,14,8) 1
y(7,14,9) 0
y(7,14,10) 1
y(7,15,1) 1
y(7,15,2) 0
y(7,15,3) 0
y(7,15,4) 0
y(7,15,5) 1
y(7,15,6) 1
y(7,15,7) 0
y(7,15,8) 1
y(7,15,9) 0
y(7,15,10) 1
y(8,1,1) 0
y(8,1,2) 1
y(8,1,3) 0
y(8,1,4) 0
y(8,1,5) 1
y(8,1,6) 1
y(8,1,7) 1
y(8,1,8) 1
y(8,1,9) 0
y(8,1,10) 0
y(8,2,1) 0
y(8,2,2) 0
y(8,2,3) 0
y(8,2,4) 0
y(8,2,5) 1
y(8,2,6) 1
y(8,2,7) 1
y(8,2,8) 1
y(8,2,9) 0
y(8,2,10) 0
y(8,3,1) 0
y(8,3,2) 0
y(8,3,3) 1
y(8,3,4) 0
y(8,3,5) 1
y(8,3,6) 1
y(8,3,7) 1
y(8,3,8) 1
y(8,3,9) 0
y(8,3,10) 0
y(8,4,1) 1
y(8,4,2) 1
y(8,4,3) 1
y(8,4,4) 0
y(8,4,5) 1
y(8,4,6) 1
y(8,4,7) 1
y(8,4,8) 1
y(8,4,9) 0
y(8,4,10) 0
y(8,5,1) 1
y(8,5,2) 1
y(8,5,3) 1
y(8,5,4) 0
y(8,5,5) 1
y(8,5,6) 1
y(8,5,7) 1
y(8,5,8) 1
y(8,5,9) 0
y(8,5,10) 0
y(8,6,1) 1
y(8,6,2) 1
y(8,6,3) 1
y(8,6,4) 1
y(8,6,5) 1
y(8,6,6) 1
y(8,6,7) 0
y(8,6,8) 0
y(8,6,9) 0
y(8,6,10) 0
y(8,7,1) 0
y(8,7,2) 1
y(8,7,3) 1
y(8,7,4) 0
y(8,7,5) 0
y(8,7,6) 1
y(8,7,7) 1
y(8,7,8) 1
y(8,7,9) 0
y(8,7,10) 0
y(8,9,1) 0
y(8,9,2) 0
y(8,9,3) 1
y(8,9,4) 0
y(8,9,5) 1
y(8,9,6) 1
y(8,9,7) 1
y(8,9,8) 1
y(8,9,9) 0
y(8,9,10) 1
y(8,10,1) 1
y(8,10,2) 1
y(8,10,3) 1
y(8,10,4) 0
y(8,10,5) 1
y(8,10,6) 1
y(8,10,7) 1
y(8,10,8) 1
y(8,10,9) 0
y(8,10,10) 0
y(8,11,1) 0
y(8,11,2) 0
y(8,11,3) 0
y(8,11,4) 0
y(8,11,5) 0
y(8,11,6) 1
y(8,11,7) 1
y(8,11,8) 1
y(8,11,9) 0
y(8,11,10) 0
y(8,12,1) 0
y(8,12,2) 1
y(8,12,3) 1
y(8,12,4) 0
y(8,12,5) 1
y(8,12,6) 1
y(8,12,7) 1
y(8,12,8) 1
y(8,12,9) 0
y(8,12,10) 0
y(8,13,1) 1
y(8,13,2) 1
y(8,13,3) 1
y(8,13,4) 0
y(8,13,5) 1
y(8,13,6) 0
y(8,13,7) 1
y(8,13,8) 0
y(8,13,9) 0
y(8,13,10) 0
y(8,14,1) 0
y(8,14,2) 0
y(8,14,3) 1
y(8,14,4) 0
y(8,14,5) 1
y(8,14,6) 1
y(8,14,7) 1
y(8,14,8) 1
y(8,14,9) 0
y(8,14,10) 0
y(8,15,1) 1
y(8,15,2) 1
y(8,15,3) 1
y(8,15,4) 0
y(8,15,5) 1
y(8,15,6) 1
y(8,15,7) 1
y(8,15,8) 1
y(8,15,9) 0
y(8,15,10) 0
y(9,1,1) 1
y(9,1,2) 1
y(9,1,3) 0
y(9,1,4) 0
y(9,1,5) 0
y(9,1,6) 1
y(9,1,7) 0
y(9,1,8) 1
y(9,1,9) 0
y(9,1,10) 0
y(9,2,1) 0
y(9,2,2) 1
y(9,2,3) 0
y(9,2,4) 0
y(9,2,5) 0
y(9,2,6) 1
y(9,2,7) 0
y(9,2,8) 1
y(9,2,9) 0
y(9,2,10) 0
y(9,3,1) 0
y(9,3,2) 1
y(9,3,3) 1
y(9,3,4) 0
y(9,3,5) 0
y(9,3,6) 1
y(9,3,7) 0
y(9,3,8) 1
y(9,3,9) 0
y(9,3,10) 0
y(9,4,1) 1
y(9,4,2) 1
y(9,4,3) 0
y(9,4,4) 1
y(9,4,5) 0
y(9,4,6) 1
y(9,4,7) 0
y(9,4,8) 1
y(9,4,9) 0
y(9,4,10) 0
y(9,5,1) 1
y(9,5,2) 1
y(9,5,3) 0
y(9,5,4) 1
y(9,5,5) 0
y(9,5,6) 1
y(9,5,7) 0
y(9,5,8) 1
y(9,5,9) 0
y(9,5,10) 0
y(9,6,1) 1
y(9,6,2) 1
y(9,6,3) 1
y(9,6,4) 1
y(9,6,5) 0
y(9,6,6) 1
y(9,6,7) 0
y(9,6,8) 0
y(9,6,9) 0
y(9,6,10) 0
y(9,7,1) 1
y(9,7,2) 1
y(9,7,3) 1
y(9,7,4) 0
y(9,7,5) 0
y(9,7,6) 1
y(9,7,7) 0
y(9,7,8) 1
y(9,7,9) 0
y(9,7,10) 0
y(9,8,1) 1
y(9,8,2) 1
y(9,8,3) 0
y(9,8,4) 1
y(9,8,5) 0
y(9,8,6) 0
y(9,8,7) 0
y(9,8,8) 0
y(9,8,9) 1
y(9,8,10) 0
y(9,10,1) 1
y(9,10,2) 1
y(9,10,3) 0
y(9,10,4) 1
y(9,10,5) 0
y(9,10,6) 1
y(9,10,7) 0
y(9,10,8) 1
y(9,10,9) 0
y(9,10,10) 0
y(9,11,1) 0
y(9,11,2) 0
y(9,11,3) 0
y(9,11,4) 1
y(9,11,5) 0
y(9,11,6) 1
y(9,11,7) 1
y(9,11,8) 0
y(9,11,9) 0
y(9,11,10) 0
y(9,12,1) 0
y(9,12,2) 1
y(9,12,3) 1
y(9,12,4) 1
y(9,12,5) 0
y(9,12,6) 0
y(9,12,7) 0
y(9,12,8) 1
y(9,12,9) 1
y(9,12,10) 0
y(9,13,1) 1
y(9,13,2) 1
y(9,13,3) 1
y(9,13,4) 1
y(9,13,5) 0
y(9,13,6) 0
y(9,13,7) 0
y(9,13,8) 0
y(9,13,9) 0
y(9,13,10) 0
y(9,14,1) 0
y(9,14,2) 1
y(9,14,3) 0
y(9,14,4) 1
y(9,14,5) 0
y(9,14,6) 1
y(9,14,7) 0
y(9,14,8) 1
y(9,14,9) 0
y(9,14,10) 0
y(9,15,1) 1
y(9,15,2) 1
y(9,15,3) 0
y(9,15,4) 0
y(9,15,5) 0
y(9,15,6) 1
y(9,15,7) 0
y(9,15,8) 1
y(9,15,9) 0
y(9,15,10) 0
y(10,1,1) 0
y(10,1,2) 0
y(10,1,3) 0
y(10,1,4) 0
y(10,1,5) 0
y(10,1,6) 0
y(10,1,7) 0
y(10,1,8) 0
y(10,1,9) 0
y(10,1,10) 0
y(10,2,1) 0
y(10,2,2) 0
y(10,2,3) 0
y(10,2,4) 0
y(10,2,5) 0
y(10,2,6) 1
y(10,2,7) 1
y(10,2,8) 1
y(10,2,9) 0
y(10,2,10) 0
y(10,3,1) 0
y(10,3,2) 0
y(10,3,3) 1
y(10,3,4) 0
y(10,3,5) 0
y(10,3,6) 1
y(10,3,7) 1
y(10,3,8) 1
y(10,3,9) 1
y(10,3,10) 1
y(10,4,1) 1
y(10,4,2) 1
y(10,4,3) 1
y(10,4,4) 0
y(10,4,5) 0
y(10,4,6) 1
y(10,4,7) 1
y(10,4,8) 0
y(10,4,9) 0
y(10,4,10) 1
y(10,5,1) 0
y(10,5,2) 1
y(10,5,3) 1
y(10,5,4) 0
y(10,5,5) 0
y(10,5,6) 1
y(10,5,7) 1
y(10,5,8) 0
y(10,5,9) 0
y(10,5,10) 0
y(10,6,1) 1
y(10,6,2) 1
y(10,6,3) 1
y(10,6,4) 1
y(10,6,5) 0
y(10,6,6) 1
y(10,6,7) 0
y(10,6,8) 0
y(10,6,9) 0
y(10,6,10) 1
y(10,7,1) 0
y(10,7,2) 1
y(10,7,3) 1
y(10,7,4) 0
y(10,7,5) 0
y(10,7,6) 0
y(10,7,7) 1
y(10,7,8) 0
y(10,7,9) 0
y(10,7,10) 0
y(10,8,1) 0
y(10,8,2) 0
y(10,8,3) 0
y(10,8,4) 1
y(10,8,5) 0
y(10,8,6) 0
y(10,8,7) 0
y(10,8,8) 0
y(10,8,9) 1
y(10,8,10) 1
y(10,9,1) 0
y(10,9,2) 0
y(10,9,3) 1
y(10,9,4) 0
y(10,9,5) 1
y(10,9,6) 0
y(10,9,7) 1
y(10,9,8) 0
y(10,9,9) 1
y(10,9,10) 1
y(10,11,1) 0
y(10,11,2) 0
y(10,11,3) 0
y(10,11,4) 0
y(10,11,5) 0
y(10,11,6) 1
y(10,11,7) 1
y(10,11,8) 0
y(10,11,9) 0
y(10,11,10) 0
y(10,12,1) 0
y(10,12,2) 1
y(10,12,3) 1
y(10,12,4) 1
y(10,12,5) 0
y(10,12,6) 0
y(10,12,7) 0
y(10,12,8) 1
y(10,12,9) 1
y(10,12,10) 0
y(10,13,1) 1
y(10,13,2) 1
y(10,13,3) 1
y(10,13,4) 1
y(10,13,5) 0
y(10,13,6) 0
y(10,13,7) 1
y(10,13,8) 0
y(10,13,9) 0
y(10,13,10) 0
y(10,14,1) 0
y(10,14,2) 0
y(10,14,3) 1
y(10,14,4) 0
y(10,14,5) 0
y(10,14,6) 1
y(10,14,7) 1
y(10,14,8) 0
y(10,14,9) 0
y(10,14,10) 0
y(10,15,1) 0
y(10,15,2) 0
y(10,15,3) 1
y(10,15,4) 0
y(10,15,5) 0
y(10,15,6) 0
y(10,15,7) 0
y(10,15,8) 0
y(10,15,9) 0
y(10,15,10) 1
y(11,1,1) 1
y(11,1,2) 1
y(11,1,3) 0
y(11,1,4) 0
y(11,1,5) 1
y(11,1,6) 0
y(11,1,7) 0
y(11,1,8) 1
y(11,1,9) 1
y(11,1,10) 1
y(11,2,1) 1
y(11,2,2) 1
y(11,2,3) 0
y(11,2,4) 0
y(11,2,5) 1
y(11,2,6) 1
y(11,2,7) 0
y(11,2,8) 1
y(11,2,9) 1
y(11,2,10) 1
y(11,3,1) 1
y(11,3,2) 1
y(11,3,3) 1
y(11,3,4) 0
y(11,3,5) 1
y(11,3,6) 1
y(11,3,7) 0
y(11,3,8) 1
y(11,3,9) 1
y(11,3,10) 1
y(11,4,1) 1
y(11,4,2) 1
y(11,4,3) 1
y(11,4,4) 1
y(11,4,5) 1
y(11,4,6) 1
y(11,4,7) 0
y(11,4,8) 1
y(11,4,9) 1
y(11,4,10) 1
y(11,5,1) 1
y(11,5,2) 1
y(11,5,3) 1
y(11,5,4) 1
y(11,5,5) 1
y(11,5,6) 1
y(11,5,7) 0
y(11,5,8) 1
y(11,5,9) 0
y(11,5,10) 1
y(11,6,1) 1
y(11,6,2) 1
y(11,6,3) 1
y(11,6,4) 1
y(11,6,5) 1
y(11,6,6) 1
y(11,6,7) 0
y(11,6,8) 0
y(11,6,9) 0
y(11,6,10) 1
y(11,7,1) 1
y(11,7,2) 1
y(11,7,3) 1
y(11,7,4) 0
y(11,7,5) 0
y(11,7,6) 0
y(11,7,7) 0
y(11,7,8) 1
y(11,7,9) 1
y(11,7,10) 1
y(11,8,1) 1
y(11,8,2) 1
y(11,8,3) 1
y(11,8,4) 1
y(11,8,5) 1
y(11,8,6) 0
y(11,8,7) 0
y(11,8,8) 0
y(11,8,9) 1
y(11,8,10) 1
y(11,9,1) 1
y(11,9,2) 1
y(11,9,3) 1
y(11,9,4) 0
y(11,9,5) 1
y(11,9,6) 0
y(11,9,7) 0
y(11,9,8) 1
y(11,9,9) 1
y(11,9,10) 1
y(11,10,1) 1
y(11,10,2) 1
y(11,10,3) 1
y(11,10,4) 1
y(11,10,5) 1
y(11,10,6) 0
y(11,10,7) 0
y(11,10,8) 1
y(11,10,9) 1
y(11,10,10) 1
y(11,12,1) 1
y(11,12,2) 1
y(11,12,3) 1
y(11,12,4) 1
y(11,12,5) 1
y(11,12,6) 0
y(11,12,7) 0
y(11,12,8) 1
y(11,12,9) 1
y(11,12,10) 0
y(11,13,1) 1
y(11,13,2) 1
y(11,13,3) 1
y(11,13,4) 1
y(11,13,5) 1
y(11,13,6) 0
y(11,13,7) 0
y(11,13,8) 0
y(11,13,9) 0
y(11,13,10) 0
y(11,14,1) 1
y(11,14,2) 1
y(11,14,3) 1
y(11,14,4) 1
y(11,14,5) 1
y(11,14,6) 1
y(11,14,7) 0
y(11,14,8) 1
y(11,14,9) 0
y(11,14,10) 1
y(11,15,1) 1
y(11,15,2) 1
y(11,15,3) 1
y(11,15,4) 0
y(11,15,5) 1
y(11,15,6) 0
y(11,15,7) 0
y(11,15,8) 1
y(11,15,9) 1
y(11,15,10) 1
y(12,1,1) 1
y(12,1,2) 0
y(12,1,3) 0
y(12,1,4) 0
y(12,1,5) 0
y(12,1,6) 1
y(12,1,7) 0
y(12,1,8) 0
y(12,1,9) 0
y(12,1,10) 1
y(12,2,1) 0
y(12,2,2) 0
y(12,2,3) 0
y(12,2,4) 0
y(12,2,5) 1
y(12,2,6) 1
y(12,2,7) 1
y(12,2,8) 0
y(12,2,9) 0
y(12,2,10) 1
y(12,3,1) 0
y(12,3,2) 0
y(12,3,3) 1
y(12,3,4) 0
y(12,3,5) 1
y(12,3,6) 1
y(12,3,7) 1
y(12,3,8) 0
y(12,3,9) 0
y(12,3,10) 1
y(12,4,1) 1
y(12,4,2) 0
y(12,4,3) 0
y(12,4,4) 0
y(12,4,5) 0
y(12,4,6) 1
y(12,4,7) 1
y(12,4,8) 0
y(12,4,9) 0
y(12,4,10) 1
y(12,5,1) 1
y(12,5,2) 1
y(12,5,3) 0
y(12,5,4) 0
y(12,5,5) 1
y(12,5,6) 1
y(12,5,7) 1
y(12,5,8) 0
y(12,5,9) 0
y(12,5,10) 1
y(12,6,1) 1
y(12,6,2) 0
y(12,6,3) 0
y(12,6,4) 1
y(12,6,5) 1
y(12,6,6) 1
y(12,6,7) 0
y(12,6,8) 0
y(12,6,9) 0
y(12,6,10) 1
y(12,7,1) 1
y(12,7,2) 1
y(12,7,3) 1
y(12,7,4) 0
y(12,7,5) 0
y(12,7,6) 1
y(12,7,7) 1
y(12,7,8) 0
y(12,7,9) 0
y(12,7,10) 1
y(12,8,1) 1
y(12,8,2) 0
y(12,8,3) 0
y(12,8,4) 1
y(12,8,5) 0
y(12,8,6) 0
y(12,8,7) 0
y(12,8,8) 0
y(12,8,9) 1
y(12,8,10) 1
y(12,9,1) 1
y(12,9,2) 0
y(12,9,3) 0
y(12,9,4) 0
y(12,9,5) 1
y(12,9,6) 1
y(12,9,7) 1
y(12,9,8) 0
y(12,9,9) 0
y(12,9,10) 1
y(12,10,1) 1
y(12,10,2) 0
y(12,10,3) 0
y(12,10,4) 0
y(12,10,5) 1
y(12,10,6) 1
y(12,10,7) 1
y(12,10,8) 0
y(12,10,9) 0
y(12,10,10) 1
y(12,11,1) 0
y(12,11,2) 0
y(12,11,3) 0
y(12,11,4) 0
y(12,11,5) 0
y(12,11,6) 1
y(12,11,7) 1
y(12,11,8) 0
y(12,11,9) 0
y(12,11,10) 1
y(12,13,1) 1
y(12,13,2) 1
y(12,13,3) 1
y(12,13,4) 1
y(12,13,5) 1
y(12,13,6) 0
y(12,13,7) 1
y(12,13,8) 0
y(12,13,9) 0
y(12,13,10) 0
y(12,14,1) 1
y(12,14,2) 0
y(12,14,3) 0
y(12,14,4) 0
y(12,14,5) 1
y(12,14,6) 1
y(12,14,7) 1
y(12,14,8) 0
y(12,14,9) 0
y(12,14,10) 1
y(12,15,1) 1
y(12,15,2) 0
y(12,15,3) 0
y(12,15,4) 0
y(12,15,5) 0
y(12,15,6) 1
y(12,15,7) 0
y(12,15,8) 0
y(12,15,9) 0
y(12,15,10) 1
y(13,1,1) 0
y(13,1,2) 0
y(13,1,3) 0
y(13,1,4) 0
y(13,1,5) 0
y(13,1,6) 1
y(13,1,7) 0
y(13,1,8) 1
y(13,1,9) 1
y(13,1,10) 1
y(13,2,1) 0
y(13,2,2) 0
y(13,2,3) 0
y(13,2,4) 0
y(13,2,5) 1
y(13,2,6) 1
y(13,2,7) 0
y(13,2,8) 1
y(13,2,9) 1
y(13,2,10) 1
y(13,3,1) 0
y(13,3,2) 0
y(13,3,3) 0
y(13,3,4) 0
y(13,3,5) 0
y(13,3,6) 1
y(13,3,7) 0
y(13,3,8) 1
y(13,3,9) 1
y(13,3,10) 1
y(13,4,1) 1
y(13,4,2) 0
y(13,4,3) 0
y(13,4,4) 0
y(13,4,5) 0
y(13,4,6) 1
y(13,4,7) 1
y(13,4,8) 1
y(13,4,9) 1
y(13,4,10) 1
y(13,5,1) 0
y(13,5,2) 1
y(13,5,3) 0
y(13,5,4) 0
y(13,5,5) 1
y(13,5,6) 1
y(13,5,7) 1
y(13,5,8) 1
y(13,5,9) 0
y(13,5,10) 1
y(13,6,1) 1
y(13,6,2) 0
y(13,6,3) 0
y(13,6,4) 1
y(13,6,5) 1
y(13,6,6) 1
y(13,6,7) 0
y(13,6,8) 0
y(13,6,9) 0
y(13,6,10) 1
y(13,7,1) 0
y(13,7,2) 1
y(13,7,3) 0
y(13,7,4) 0
y(13,7,5) 0
y(13,7,6) 1
y(13,7,7) 0
y(13,7,8) 1
y(13,7,9) 1
y(13,7,10) 1
y(13,8,1) 0
y(13,8,2) 0
y(13,8,3) 0
y(13,8,4) 1
y(13,8,5) 0
y(13,8,6) 1
y(13,8,7) 0
y(13,8,8) 1
y(13,8,9) 1
y(13,8,10) 1
y(13,9,1) 0
y(13,9,2) 0
y(13,9,3) 0
y(13,9,4) 0
y(13,9,5) 1
y(13,9,6) 1
y(13,9,7) 1
y(13,9,8) 1
y(13,9,9) 1
y(13,9,10) 1
y(13,10,1) 0
y(13,10,2) 0
y(13,10,3) 0
y(13,10,4) 0
y(13,10,5) 1
y(13,10,6) 1
y(13,10,7) 0
y(13,10,8) 1
y(13,10,9) 1
y(13,10,10) 1
y(13,11,1) 0
y(13,11,2) 0
y(13,11,3) 0
y(13,11,4) 0
y(13,11,5) 0
y(13,11,6) 1
y(13,11,7) 1
y(13,11,8) 1
y(13,11,9) 1
y(13,11,10) 1
y(13,12,1) 0
y(13,12,2) 0
y(13,12,3) 0
y(13,12,4) 0
y(13,12,5) 0
y(13,12,6) 1
y(13,12,7) 0
y(13,12,8) 1
y(13,12,9) 1
y(13,12,10) 1
y(13,14,1) 0
y(13,14,2) 0
y(13,14,3) 0
y(13,14,4) 0
y(13,14,5) 1
y(13,14,6) 1
y(13,14,7) 0
y(13,14,8) 1
y(13,14,9) 0
y(13,14,10) 1
y(13,15,1) 0
y(13,15,2) 0
y(13,15,3) 0
y(13,15,4) 0
y(13,15,5) 0
y(13,15,6) 1
y(13,15,7) 0
y(13,15,8) 1
y(13,15,9) 1
y(13,15,10) 1
y(14,1,1) 1
y(14,1,2) 1
y(14,1,3) 0
y(14,1,4) 0
y(14,1,5) 0
y(14,1,6) 0
y(14,1,7) 0
y(14,1,8) 0
y(14,1,9) 1
y(14,1,10) 0
y(14,2,1) 0
y(14,2,2) 1
y(14,2,3) 0
y(14,2,4) 0
y(14,2,5) 1
y(14,2,6) 1
y(14,2,7) 1
y(14,2,8) 1
y(14,2,9) 1
y(14,2,10) 0
y(14,3,1) 0
y(14,3,2) 0
y(14,3,3) 1
y(14,3,4) 0
y(14,3,5) 0
y(14,3,6) 1
y(14,3,7) 0
y(14,3,8) 1
y(14,3,9) 1
y(14,3,10) 1
y(14,4,1) 1
y(14,4,2) 1
y(14,4,3) 0
y(14,4,4) 1
y(14,4,5) 0
y(14,4,6) 0
y(14,4,7) 1
y(14,4,8) 0
y(14,4,9) 1
y(14,4,10) 1
y(14,5,1) 1
y(14,5,2) 1
y(14,5,3) 1
y(14,5,4) 1
y(14,5,5) 0
y(14,5,6) 1
y(14,5,7) 1
y(14,5,8) 0
y(14,5,9) 0
y(14,5,10) 0
y(14,6,1) 1
y(14,6,2) 1
y(14,6,3) 1
y(14,6,4) 1
y(14,6,5) 1
y(14,6,6) 1
y(14,6,7) 0
y(14,6,8) 0
y(14,6,9) 0
y(14,6,10) 1
y(14,7,1) 1
y(14,7,2) 1
y(14,7,3) 1
y(14,7,4) 0
y(14,7,5) 0
y(14,7,6) 0
y(14,7,7) 0
y(14,7,8) 0
y(14,7,9) 1
y(14,7,10) 0
y(14,8,1) 1
y(14,8,2) 1
y(14,8,3) 0
y(14,8,4) 1
y(14,8,5) 0
y(14,8,6) 0
y(14,8,7) 0
y(14,8,8) 0
y(14,8,9) 1
y(14,8,10) 1
y(14,9,1) 1
y(14,9,2) 0
y(14,9,3) 1
y(14,9,4) 0
y(14,9,5) 1
y(14,9,6) 0
y(14,9,7) 1
y(14,9,8) 0
y(14,9,9) 1
y(14,9,10) 1
y(14,10,1) 1
y(14,10,2) 1
y(14,10,3) 0
y(14,10,4) 1
y(14,10,5) 1
y(14,10,6) 0
y(14,10,7) 0
y(14,10,8) 1
y(14,10,9) 1
y(14,10,10) 1
y(14,11,1) 0
y(14,11,2) 0
y(14,11,3) 0
y(14,11,4) 0
y(14,11,5) 0
y(14,11,6) 0
y(14,11,7) 1
y(14,11,8) 0
y(14,11,9) 1
y(14,11,10) 0
y(14,12,1) 0
y(14,12,2) 1
y(14,12,3) 1
y(14,12,4) 1
y(14,12,5) 0
y(14,12,6) 0
y(14,12,7) 0
y(14,12,8) 1
y(14,12,9) 1
y(14,12,10) 0
y(14,13,1) 1
y(14,13,2) 1
y(14,13,3) 1
y(14,13,4) 1
y(14,13,5) 0
y(14,13,6) 0
y(14,13,7) 1
y(14,13,8) 0
y(14,13,9) 1
y(14,13,10) 0
y(14,15,1) 1
y(14,15,2) 1
y(14,15,3) 0
y(14,15,4) 0
y(14,15,5) 0
y(14,15,6) 0
y(14,15,7) 0
y(14,15,8) 0
y(14,15,9) 1
y(14,15,10) 1
y(15,1,1) 0
y(15,1,2) 1
y(15,1,3) 0
y(15,1,4) 0
y(15,1,5) 1
y(15,1,6) 0
y(15,1,7) 1
y(15,1,8) 0
y(15,1,9) 1
y(15,1,10) 0
y(15,2,1) 0
y(15,2,2) 0
y(15,2,3) 0
y(15,2,4) 0
y(15,2,5) 1
y(15,2,6) 1
y(15,2,7) 1
y(15,2,8) 1
y(15,2,9) 1
y(15,2,10) 0
y(15,3,1) 0
y(15,3,2) 0
y(15,3,3) 1
y(15,3,4) 1
y(15,3,5) 1
y(15,3,6) 1
y(15,3,7) 1
y(15,3,8) 1
y(15,3,9) 1
y(15,3,10) 1
y(15,4,1) 1
y(15,4,2) 1
y(15,4,3) 0
y(15,4,4) 1
y(15,4,5) 1
y(15,4,6) 1
y(15,4,7) 1
y(15,4,8) 0
y(15,4,9) 0
y(15,4,10) 1
y(15,5,1) 0
y(15,5,2) 1
y(15,5,3) 1
y(15,5,4) 1
y(15,5,5) 1
y(15,5,6) 1
y(15,5,7) 1
y(15,5,8) 1
y(15,5,9) 0
y(15,5,10) 0
y(15,6,1) 1
y(15,6,2) 1
y(15,6,3) 1
y(15,6,4) 1
y(15,6,5) 1
y(15,6,6) 1
y(15,6,7) 0
y(15,6,8) 0
y(15,6,9) 0
y(15,6,10) 0
y(15,7,1) 0
y(15,7,2) 1
y(15,7,3) 1
y(15,7,4) 1
y(15,7,5) 0
y(15,7,6) 0
y(15,7,7) 1
y(15,7,8) 0
y(15,7,9) 1
y(15,7,10) 0
y(15,8,1) 0
y(15,8,2) 0
y(15,8,3) 0
y(15,8,4) 1
y(15,8,5) 0
y(15,8,6) 0
y(15,8,7) 0
y(15,8,8) 0
y(15,8,9) 1
y(15,8,10) 1
y(15,9,1) 0
y(15,9,2) 0
y(15,9,3) 1
y(15,9,4) 1
y(15,9,5) 1
y(15,9,6) 0
y(15,9,7) 1
y(15,9,8) 0
y(15,9,9) 1
y(15,9,10) 1
y(15,10,1) 1
y(15,10,2) 1
y(15,10,3) 0
y(15,10,4) 1
y(15,10,5) 1
y(15,10,6) 1
y(15,10,7) 1
y(15,10,8) 1
y(15,10,9) 1
y(15,10,10) 0
y(15,11,1) 0
y(15,11,2) 0
y(15,11,3) 0
y(15,11,4) 1
y(15,11,5) 0
y(15,11,6) 1
y(15,11,7) 1
y(15,11,8) 0
y(15,11,9) 0
y(15,11,10) 0
y(15,12,1) 0
y(15,12,2) 1
y(15,12,3) 1
y(15,12,4) 1
y(15,12,5) 1
y(15,12,6) 0
y(15,12,7) 1
y(15,12,8) 1
y(15,12,9) 1
y(15,12,10) 0
y(15,13,1) 1
y(15,13,2) 1
y(15,13,3) 1
y(15,13,4) 1
y(15,13,5) 1
y(15,13,6) 0
y(15,13,7) 1
y(15,13,8) 0
y(15,13,9) 0
y(15,13,10) 0
y(15,14,1) 0
y(15,14,2) 0
y(15,14,3) 1
y(15,14,4) 1
y(15,14,5) 1
y(15,14,6) 1
y(15,14,7) 1
y(15,14,8) 1
y(15,14,9) 0
y(15,14,10) 0
